c description: Random 3-CNF over 21 variables and 89 clauses
c generator: CNFgen (0.9.2)
c copyright: (C) 2012-2022 Massimo Lauria <massimo.lauria@uniroma1.it>
c url: https://massimolauria.net/cnfgen
c command line: cnfgen --output CNF_4.28/21_bit_89_890.cnf randkcnf 3 21 89
c
p cnf 21 89
-6 8 17 0
-8 -9 -19 0
9 -12 -19 0
-3 10 15 0
-5 -6 15 0
-2 5 -6 0
5 -14 16 0
-4 -11 -18 0
-5 14 -16 0
-3 -6 -12 0
-4 13 -17 0
2 -19 -20 0
4 9 10 0
2 -12 -21 0
13 15 17 0
5 -12 18 0
-11 -13 -16 0
-10 18 -21 0
-2 -11 -15 0
-10 -15 19 0
4 -5 -19 0
13 -16 -21 0
3 -6 -11 0
5 7 14 0
-7 -10 -18 0
4 5 9 0
-3 -5 -7 0
6 11 -21 0
1 3 -19 0
-4 9 -17 0
3 -17 19 0
4 14 18 0
-4 -5 -17 0
4 7 8 0
-11 -12 -17 0
-3 12 14 0
-8 -20 21 0
2 12 -13 0
-3 -9 12 0
-5 -17 20 0
-2 -13 -16 0
-6 7 11 0
7 9 18 0
9 13 16 0
-4 -10 18 0
-3 -11 12 0
9 15 -21 0
8 16 -18 0
5 7 -13 0
-7 15 21 0
2 -17 -18 0
6 15 -18 0
-1 8 -12 0
3 -7 -9 0
4 8 12 0
-6 -14 -15 0
14 -15 -20 0
-3 14 20 0
-2 8 13 0
7 16 20 0
-8 -10 20 0
2 7 -21 0
-2 6 -20 0
2 -17 18 0
-9 -11 18 0
-1 14 -21 0
-1 5 10 0
-2 14 -18 0
-2 6 19 0
-3 10 -11 0
-3 -18 -20 0
-7 -9 -10 0
8 12 19 0
-4 8 15 0
6 18 -20 0
-2 10 11 0
3 7 -11 0
14 20 -21 0
-9 14 -21 0
1 -18 -19 0
8 -10 -13 0
-2 -10 -13 0
-2 13 -16 0
-4 -6 13 0
1 4 18 0
-13 -17 20 0
-7 8 -18 0
3 -5 -13 0
15 -17 19 0
